2.3 15.7
9.8 42.1
15.2 88.5
22.7 12.9
28.4 67.3
34.9 33.8
41.6 78.2
47.3 24.6
53.8 91.7
59.1 38.4
64.7 83.9
71.4 29.3
77.9 74.8
84.2 19.5
90.7 65.1
6.4 56.9
13.1 2.4
19.5 47.8
26.8 93.2
32.5 28.7
39.2 73.6
45.9 18.9
51.6 64.3
58.3 9.8
63.7 54.6
70.2 99.1
76.8 44.5
83.1 89.7
89.6 35.2
96.3 80.4
4.1 26.8
10.9 71.5
17.3 16.9
24.6 62.4
30.8 7.7
37.5 52.3
43.2 97.6
49.7 42.8
56.4 87.3
62.9 32.6
69.5 77.9
75.8 23.1
82.4 68.5
88.9 13.8
95.2 59.2
1.7 84.6
8.5 39.9
14.8 95.3
21.6 50.7
27.9 5.4